10J3M/DAT/10J3MNNX-3.dat
10 3
19.5143 4.4175
21.263 4.6112
23.579 4.8558
23.6288 4.8609
30.4691 5.5199
35.4054 5.9502
25.7931 5.0787
30.1898 5.4945
28.7463 5.3616
32.8172 5.7286
51.8789