10J3M/SOL/10J3MNNX-3.sol
solution status: optimal solution found
objective value:                     90.4686666666666
x#1#1                                               1 	(obj:0)
x#2#2                                               1 	(obj:0)
x#3#1                                               1 	(obj:0)
x#4#2                                               1 	(obj:0)
x#5#2                               0.269881070767871 	(obj:0)
x#5#3                               0.730118929232129 	(obj:0)
x#6#3                                               1 	(obj:0)
x#7#1                                               1 	(obj:0)
x#8#2                                               1 	(obj:0)
x#9#1                               0.750784158888854 	(obj:0)
x#9#2                               0.249215841111146 	(obj:0)
x#10#3                                              1 	(obj:0)
z                                    90.4686666666666 	(obj:1)
